(set-logic QF_LRA)
(declare-fun T1 () Real )
(declare-fun T2 () Real )
(declare-fun T3 () Real )
(declare-fun T4 () Real )
(declare-fun T5 () Real )
(declare-fun T6 () Real )
(declare-fun T7 () Real )
(declare-fun T8 () Real )
(declare-fun Z () Real )
(assert ( and 
(or ( <= ( + T1 44 ) T2 ) ( <= ( + T2 5 ) T1 ) )
(or ( <= ( + T1 61 )  ( + T2 5 ) ) ( <= ( + T2 49 )( + T1 44 ) ) )
(or ( <= ( + T1 73 )  ( + T2 49 ) ) ( <= ( + T2 51 )( + T1 61 ) ) )
(or ( <= ( + T1 113 )  ( + T2 51 ) ) ( <= ( + T2 144 )( + T1 73 ) ) )
(or ( <= ( + T1 213 )  ( + T2 144 ) ) ( <= ( + T2 178 )( + T1 113 ) ) )
(or ( <= ( + T1 295 )  ( + T2 178 ) ) ( <= ( + T2 227 )( + T1 213 ) ) )
(or ( <= ( + T1 339 )  ( + T2 227 ) ) ( <= ( + T2 321 )( + T1 295 ) ) )
(or ( <= ( + T1 378 )  ( + T2 321 ) ) ( <= ( + T2 400 )( + T1 339 ) ) )
(or ( <= ( + T1 386 )  ( + T2 400 ) ) ( <= ( + T2 420 )( + T1 378 ) ) )
(or ( <= ( + T1 425 )  ( + T2 420 ) ) ( <= ( + T2 504 )( + T1 386 ) ) )
(or ( <= ( + T1 44 ) T3 ) ( <= ( + T3 2 ) T1 ) )
(or ( <= ( + T1 61 )  ( + T3 2 ) ) ( <= ( + T3 21 )( + T1 44 ) ) )
(or ( <= ( + T1 73 )  ( + T3 21 ) ) ( <= ( + T3 87 )( + T1 61 ) ) )
(or ( <= ( + T1 113 )  ( + T3 87 ) ) ( <= ( + T3 186 )( + T1 73 ) ) )
(or ( <= ( + T1 213 )  ( + T3 186 ) ) ( <= ( + T3 192 )( + T1 113 ) ) )
(or ( <= ( + T1 295 )  ( + T3 192 ) ) ( <= ( + T3 228 )( + T1 213 ) ) )
(or ( <= ( + T1 339 )  ( + T3 228 ) ) ( <= ( + T3 279 )( + T1 295 ) ) )
(or ( <= ( + T1 378 )  ( + T3 279 ) ) ( <= ( + T3 340 )( + T1 339 ) ) )
(or ( <= ( + T1 386 )  ( + T3 340 ) ) ( <= ( + T3 426 )( + T1 378 ) ) )
(or ( <= ( + T1 425 )  ( + T3 426 ) ) ( <= ( + T3 512 )( + T1 386 ) ) )
(or ( <= ( + T1 44 ) T4 ) ( <= ( + T4 24 ) T1 ) )
(or ( <= ( + T1 61 )  ( + T4 24 ) ) ( <= ( + T4 54 )( + T1 44 ) ) )
(or ( <= ( + T1 73 )  ( + T4 54 ) ) ( <= ( + T4 56 )( + T1 61 ) ) )
(or ( <= ( + T1 113 )  ( + T4 56 ) ) ( <= ( + T4 143 )( + T1 73 ) ) )
(or ( <= ( + T1 213 )  ( + T4 143 ) ) ( <= ( + T4 212 )( + T1 113 ) ) )
(or ( <= ( + T1 295 )  ( + T4 212 ) ) ( <= ( + T4 266 )( + T1 213 ) ) )
(or ( <= ( + T1 339 )  ( + T4 266 ) ) ( <= ( + T4 335 )( + T1 295 ) ) )
(or ( <= ( + T1 378 )  ( + T4 335 ) ) ( <= ( + T4 347 )( + T1 339 ) ) )
(or ( <= ( + T1 386 )  ( + T4 347 ) ) ( <= ( + T4 391 )( + T1 378 ) ) )
(or ( <= ( + T1 425 )  ( + T4 391 ) ) ( <= ( + T4 419 )( + T1 386 ) ) )
(or ( <= ( + T1 44 ) T5 ) ( <= ( + T5 50 ) T1 ) )
(or ( <= ( + T1 61 )  ( + T5 50 ) ) ( <= ( + T5 98 )( + T1 44 ) ) )
(or ( <= ( + T1 73 )  ( + T5 98 ) ) ( <= ( + T5 170 )( + T1 61 ) ) )
(or ( <= ( + T1 113 )  ( + T5 170 ) ) ( <= ( + T5 173 )( + T1 73 ) ) )
(or ( <= ( + T1 213 )  ( + T5 173 ) ) ( <= ( + T5 265 )( + T1 113 ) ) )
(or ( <= ( + T1 295 )  ( + T5 265 ) ) ( <= ( + T5 270 )( + T1 213 ) ) )
(or ( <= ( + T1 339 )  ( + T5 270 ) ) ( <= ( + T5 273 )( + T1 295 ) ) )
(or ( <= ( + T1 378 )  ( + T5 273 ) ) ( <= ( + T5 358 )( + T1 339 ) ) )
(or ( <= ( + T1 386 )  ( + T5 358 ) ) ( <= ( + T5 441 )( + T1 378 ) ) )
(or ( <= ( + T1 425 )  ( + T5 441 ) ) ( <= ( + T5 463 )( + T1 386 ) ) )
(or ( <= ( + T1 44 ) T6 ) ( <= ( + T6 20 ) T1 ) )
(or ( <= ( + T1 61 )  ( + T6 20 ) ) ( <= ( + T6 57 )( + T1 44 ) ) )
(or ( <= ( + T1 73 )  ( + T6 57 ) ) ( <= ( + T6 149 )( + T1 61 ) ) )
(or ( <= ( + T1 113 )  ( + T6 149 ) ) ( <= ( + T6 186 )( + T1 73 ) ) )
(or ( <= ( + T1 213 )  ( + T6 186 ) ) ( <= ( + T6 221 )( + T1 113 ) ) )
(or ( <= ( + T1 295 )  ( + T6 221 ) ) ( <= ( + T6 318 )( + T1 213 ) ) )
(or ( <= ( + T1 339 )  ( + T6 318 ) ) ( <= ( + T6 390 )( + T1 295 ) ) )
(or ( <= ( + T1 378 )  ( + T6 390 ) ) ( <= ( + T6 475 )( + T1 339 ) ) )
(or ( <= ( + T1 386 )  ( + T6 475 ) ) ( <= ( + T6 484 )( + T1 378 ) ) )
(or ( <= ( + T1 425 )  ( + T6 484 ) ) ( <= ( + T6 542 )( + T1 386 ) ) )
(or ( <= ( + T1 44 ) T7 ) ( <= ( + T7 70 ) T1 ) )
(or ( <= ( + T1 61 )  ( + T7 70 ) ) ( <= ( + T7 155 )( + T1 44 ) ) )
(or ( <= ( + T1 73 )  ( + T7 155 ) ) ( <= ( + T7 194 )( + T1 61 ) ) )
(or ( <= ( + T1 113 )  ( + T7 194 ) ) ( <= ( + T7 218 )( + T1 73 ) ) )
(or ( <= ( + T1 213 )  ( + T7 218 ) ) ( <= ( + T7 289 )( + T1 113 ) ) )
(or ( <= ( + T1 295 )  ( + T7 289 ) ) ( <= ( + T7 348 )( + T1 213 ) ) )
(or ( <= ( + T1 339 )  ( + T7 348 ) ) ( <= ( + T7 425 )( + T1 295 ) ) )
(or ( <= ( + T1 378 )  ( + T7 425 ) ) ( <= ( + T7 516 )( + T1 339 ) ) )
(or ( <= ( + T1 386 )  ( + T7 516 ) ) ( <= ( + T7 538 )( + T1 378 ) ) )
(or ( <= ( + T1 425 )  ( + T7 538 ) ) ( <= ( + T7 558 )( + T1 386 ) ) )
(or ( <= ( + T1 44 ) T8 ) ( <= ( + T8 19 ) T1 ) )
(or ( <= ( + T1 61 )  ( + T8 19 ) ) ( <= ( + T8 42 )( + T1 44 ) ) )
(or ( <= ( + T1 73 )  ( + T8 42 ) ) ( <= ( + T8 61 )( + T1 61 ) ) )
(or ( <= ( + T1 113 )  ( + T8 61 ) ) ( <= ( + T8 151 )( + T1 73 ) ) )
(or ( <= ( + T1 213 )  ( + T8 151 ) ) ( <= ( + T8 176 )( + T1 113 ) ) )
(or ( <= ( + T1 295 )  ( + T8 176 ) ) ( <= ( + T8 238 )( + T1 213 ) ) )
(or ( <= ( + T1 339 )  ( + T8 238 ) ) ( <= ( + T8 284 )( + T1 295 ) ) )
(or ( <= ( + T1 378 )  ( + T8 284 ) ) ( <= ( + T8 363 )( + T1 339 ) ) )
(or ( <= ( + T1 386 )  ( + T8 363 ) ) ( <= ( + T8 409 )( + T1 378 ) ) )
(or ( <= ( + T1 425 )  ( + T8 409 ) ) ( <= ( + T8 490 )( + T1 386 ) ) )
(or ( <= ( + T2 5 ) T3 ) ( <= ( + T3 2 ) T2 ) )
(or ( <= ( + T2 49 )  ( + T3 2 ) ) ( <= ( + T3 21 )( + T2 5 ) ) )
(or ( <= ( + T2 51 )  ( + T3 21 ) ) ( <= ( + T3 87 )( + T2 49 ) ) )
(or ( <= ( + T2 144 )  ( + T3 87 ) ) ( <= ( + T3 186 )( + T2 51 ) ) )
(or ( <= ( + T2 178 )  ( + T3 186 ) ) ( <= ( + T3 192 )( + T2 144 ) ) )
(or ( <= ( + T2 227 )  ( + T3 192 ) ) ( <= ( + T3 228 )( + T2 178 ) ) )
(or ( <= ( + T2 321 )  ( + T3 228 ) ) ( <= ( + T3 279 )( + T2 227 ) ) )
(or ( <= ( + T2 400 )  ( + T3 279 ) ) ( <= ( + T3 340 )( + T2 321 ) ) )
(or ( <= ( + T2 420 )  ( + T3 340 ) ) ( <= ( + T3 426 )( + T2 400 ) ) )
(or ( <= ( + T2 504 )  ( + T3 426 ) ) ( <= ( + T3 512 )( + T2 420 ) ) )
(or ( <= ( + T2 5 ) T4 ) ( <= ( + T4 24 ) T2 ) )
(or ( <= ( + T2 49 )  ( + T4 24 ) ) ( <= ( + T4 54 )( + T2 5 ) ) )
(or ( <= ( + T2 51 )  ( + T4 54 ) ) ( <= ( + T4 56 )( + T2 49 ) ) )
(or ( <= ( + T2 144 )  ( + T4 56 ) ) ( <= ( + T4 143 )( + T2 51 ) ) )
(or ( <= ( + T2 178 )  ( + T4 143 ) ) ( <= ( + T4 212 )( + T2 144 ) ) )
(or ( <= ( + T2 227 )  ( + T4 212 ) ) ( <= ( + T4 266 )( + T2 178 ) ) )
(or ( <= ( + T2 321 )  ( + T4 266 ) ) ( <= ( + T4 335 )( + T2 227 ) ) )
(or ( <= ( + T2 400 )  ( + T4 335 ) ) ( <= ( + T4 347 )( + T2 321 ) ) )
(or ( <= ( + T2 420 )  ( + T4 347 ) ) ( <= ( + T4 391 )( + T2 400 ) ) )
(or ( <= ( + T2 504 )  ( + T4 391 ) ) ( <= ( + T4 419 )( + T2 420 ) ) )
(or ( <= ( + T2 5 ) T5 ) ( <= ( + T5 50 ) T2 ) )
(or ( <= ( + T2 49 )  ( + T5 50 ) ) ( <= ( + T5 98 )( + T2 5 ) ) )
(or ( <= ( + T2 51 )  ( + T5 98 ) ) ( <= ( + T5 170 )( + T2 49 ) ) )
(or ( <= ( + T2 144 )  ( + T5 170 ) ) ( <= ( + T5 173 )( + T2 51 ) ) )
(or ( <= ( + T2 178 )  ( + T5 173 ) ) ( <= ( + T5 265 )( + T2 144 ) ) )
(or ( <= ( + T2 227 )  ( + T5 265 ) ) ( <= ( + T5 270 )( + T2 178 ) ) )
(or ( <= ( + T2 321 )  ( + T5 270 ) ) ( <= ( + T5 273 )( + T2 227 ) ) )
(or ( <= ( + T2 400 )  ( + T5 273 ) ) ( <= ( + T5 358 )( + T2 321 ) ) )
(or ( <= ( + T2 420 )  ( + T5 358 ) ) ( <= ( + T5 441 )( + T2 400 ) ) )
(or ( <= ( + T2 504 )  ( + T5 441 ) ) ( <= ( + T5 463 )( + T2 420 ) ) )
(or ( <= ( + T2 5 ) T6 ) ( <= ( + T6 20 ) T2 ) )
(or ( <= ( + T2 49 )  ( + T6 20 ) ) ( <= ( + T6 57 )( + T2 5 ) ) )
(or ( <= ( + T2 51 )  ( + T6 57 ) ) ( <= ( + T6 149 )( + T2 49 ) ) )
(or ( <= ( + T2 144 )  ( + T6 149 ) ) ( <= ( + T6 186 )( + T2 51 ) ) )
(or ( <= ( + T2 178 )  ( + T6 186 ) ) ( <= ( + T6 221 )( + T2 144 ) ) )
(or ( <= ( + T2 227 )  ( + T6 221 ) ) ( <= ( + T6 318 )( + T2 178 ) ) )
(or ( <= ( + T2 321 )  ( + T6 318 ) ) ( <= ( + T6 390 )( + T2 227 ) ) )
(or ( <= ( + T2 400 )  ( + T6 390 ) ) ( <= ( + T6 475 )( + T2 321 ) ) )
(or ( <= ( + T2 420 )  ( + T6 475 ) ) ( <= ( + T6 484 )( + T2 400 ) ) )
(or ( <= ( + T2 504 )  ( + T6 484 ) ) ( <= ( + T6 542 )( + T2 420 ) ) )
(or ( <= ( + T2 5 ) T7 ) ( <= ( + T7 70 ) T2 ) )
(or ( <= ( + T2 49 )  ( + T7 70 ) ) ( <= ( + T7 155 )( + T2 5 ) ) )
(or ( <= ( + T2 51 )  ( + T7 155 ) ) ( <= ( + T7 194 )( + T2 49 ) ) )
(or ( <= ( + T2 144 )  ( + T7 194 ) ) ( <= ( + T7 218 )( + T2 51 ) ) )
(or ( <= ( + T2 178 )  ( + T7 218 ) ) ( <= ( + T7 289 )( + T2 144 ) ) )
(or ( <= ( + T2 227 )  ( + T7 289 ) ) ( <= ( + T7 348 )( + T2 178 ) ) )
(or ( <= ( + T2 321 )  ( + T7 348 ) ) ( <= ( + T7 425 )( + T2 227 ) ) )
(or ( <= ( + T2 400 )  ( + T7 425 ) ) ( <= ( + T7 516 )( + T2 321 ) ) )
(or ( <= ( + T2 420 )  ( + T7 516 ) ) ( <= ( + T7 538 )( + T2 400 ) ) )
(or ( <= ( + T2 504 )  ( + T7 538 ) ) ( <= ( + T7 558 )( + T2 420 ) ) )
(or ( <= ( + T2 5 ) T8 ) ( <= ( + T8 19 ) T2 ) )
(or ( <= ( + T2 49 )  ( + T8 19 ) ) ( <= ( + T8 42 )( + T2 5 ) ) )
(or ( <= ( + T2 51 )  ( + T8 42 ) ) ( <= ( + T8 61 )( + T2 49 ) ) )
(or ( <= ( + T2 144 )  ( + T8 61 ) ) ( <= ( + T8 151 )( + T2 51 ) ) )
(or ( <= ( + T2 178 )  ( + T8 151 ) ) ( <= ( + T8 176 )( + T2 144 ) ) )
(or ( <= ( + T2 227 )  ( + T8 176 ) ) ( <= ( + T8 238 )( + T2 178 ) ) )
(or ( <= ( + T2 321 )  ( + T8 238 ) ) ( <= ( + T8 284 )( + T2 227 ) ) )
(or ( <= ( + T2 400 )  ( + T8 284 ) ) ( <= ( + T8 363 )( + T2 321 ) ) )
(or ( <= ( + T2 420 )  ( + T8 363 ) ) ( <= ( + T8 409 )( + T2 400 ) ) )
(or ( <= ( + T2 504 )  ( + T8 409 ) ) ( <= ( + T8 490 )( + T2 420 ) ) )
(or ( <= ( + T3 2 ) T4 ) ( <= ( + T4 24 ) T3 ) )
(or ( <= ( + T3 21 )  ( + T4 24 ) ) ( <= ( + T4 54 )( + T3 2 ) ) )
(or ( <= ( + T3 87 )  ( + T4 54 ) ) ( <= ( + T4 56 )( + T3 21 ) ) )
(or ( <= ( + T3 186 )  ( + T4 56 ) ) ( <= ( + T4 143 )( + T3 87 ) ) )
(or ( <= ( + T3 192 )  ( + T4 143 ) ) ( <= ( + T4 212 )( + T3 186 ) ) )
(or ( <= ( + T3 228 )  ( + T4 212 ) ) ( <= ( + T4 266 )( + T3 192 ) ) )
(or ( <= ( + T3 279 )  ( + T4 266 ) ) ( <= ( + T4 335 )( + T3 228 ) ) )
(or ( <= ( + T3 340 )  ( + T4 335 ) ) ( <= ( + T4 347 )( + T3 279 ) ) )
(or ( <= ( + T3 426 )  ( + T4 347 ) ) ( <= ( + T4 391 )( + T3 340 ) ) )
(or ( <= ( + T3 512 )  ( + T4 391 ) ) ( <= ( + T4 419 )( + T3 426 ) ) )
(or ( <= ( + T3 2 ) T5 ) ( <= ( + T5 50 ) T3 ) )
(or ( <= ( + T3 21 )  ( + T5 50 ) ) ( <= ( + T5 98 )( + T3 2 ) ) )
(or ( <= ( + T3 87 )  ( + T5 98 ) ) ( <= ( + T5 170 )( + T3 21 ) ) )
(or ( <= ( + T3 186 )  ( + T5 170 ) ) ( <= ( + T5 173 )( + T3 87 ) ) )
(or ( <= ( + T3 192 )  ( + T5 173 ) ) ( <= ( + T5 265 )( + T3 186 ) ) )
(or ( <= ( + T3 228 )  ( + T5 265 ) ) ( <= ( + T5 270 )( + T3 192 ) ) )
(or ( <= ( + T3 279 )  ( + T5 270 ) ) ( <= ( + T5 273 )( + T3 228 ) ) )
(or ( <= ( + T3 340 )  ( + T5 273 ) ) ( <= ( + T5 358 )( + T3 279 ) ) )
(or ( <= ( + T3 426 )  ( + T5 358 ) ) ( <= ( + T5 441 )( + T3 340 ) ) )
(or ( <= ( + T3 512 )  ( + T5 441 ) ) ( <= ( + T5 463 )( + T3 426 ) ) )
(or ( <= ( + T3 2 ) T6 ) ( <= ( + T6 20 ) T3 ) )
(or ( <= ( + T3 21 )  ( + T6 20 ) ) ( <= ( + T6 57 )( + T3 2 ) ) )
(or ( <= ( + T3 87 )  ( + T6 57 ) ) ( <= ( + T6 149 )( + T3 21 ) ) )
(or ( <= ( + T3 186 )  ( + T6 149 ) ) ( <= ( + T6 186 )( + T3 87 ) ) )
(or ( <= ( + T3 192 )  ( + T6 186 ) ) ( <= ( + T6 221 )( + T3 186 ) ) )
(or ( <= ( + T3 228 )  ( + T6 221 ) ) ( <= ( + T6 318 )( + T3 192 ) ) )
(or ( <= ( + T3 279 )  ( + T6 318 ) ) ( <= ( + T6 390 )( + T3 228 ) ) )
(or ( <= ( + T3 340 )  ( + T6 390 ) ) ( <= ( + T6 475 )( + T3 279 ) ) )
(or ( <= ( + T3 426 )  ( + T6 475 ) ) ( <= ( + T6 484 )( + T3 340 ) ) )
(or ( <= ( + T3 512 )  ( + T6 484 ) ) ( <= ( + T6 542 )( + T3 426 ) ) )
(or ( <= ( + T3 2 ) T7 ) ( <= ( + T7 70 ) T3 ) )
(or ( <= ( + T3 21 )  ( + T7 70 ) ) ( <= ( + T7 155 )( + T3 2 ) ) )
(or ( <= ( + T3 87 )  ( + T7 155 ) ) ( <= ( + T7 194 )( + T3 21 ) ) )
(or ( <= ( + T3 186 )  ( + T7 194 ) ) ( <= ( + T7 218 )( + T3 87 ) ) )
(or ( <= ( + T3 192 )  ( + T7 218 ) ) ( <= ( + T7 289 )( + T3 186 ) ) )
(or ( <= ( + T3 228 )  ( + T7 289 ) ) ( <= ( + T7 348 )( + T3 192 ) ) )
(or ( <= ( + T3 279 )  ( + T7 348 ) ) ( <= ( + T7 425 )( + T3 228 ) ) )
(or ( <= ( + T3 340 )  ( + T7 425 ) ) ( <= ( + T7 516 )( + T3 279 ) ) )
(or ( <= ( + T3 426 )  ( + T7 516 ) ) ( <= ( + T7 538 )( + T3 340 ) ) )
(or ( <= ( + T3 512 )  ( + T7 538 ) ) ( <= ( + T7 558 )( + T3 426 ) ) )
(or ( <= ( + T3 2 ) T8 ) ( <= ( + T8 19 ) T3 ) )
(or ( <= ( + T3 21 )  ( + T8 19 ) ) ( <= ( + T8 42 )( + T3 2 ) ) )
(or ( <= ( + T3 87 )  ( + T8 42 ) ) ( <= ( + T8 61 )( + T3 21 ) ) )
(or ( <= ( + T3 186 )  ( + T8 61 ) ) ( <= ( + T8 151 )( + T3 87 ) ) )
(or ( <= ( + T3 192 )  ( + T8 151 ) ) ( <= ( + T8 176 )( + T3 186 ) ) )
(or ( <= ( + T3 228 )  ( + T8 176 ) ) ( <= ( + T8 238 )( + T3 192 ) ) )
(or ( <= ( + T3 279 )  ( + T8 238 ) ) ( <= ( + T8 284 )( + T3 228 ) ) )
(or ( <= ( + T3 340 )  ( + T8 284 ) ) ( <= ( + T8 363 )( + T3 279 ) ) )
(or ( <= ( + T3 426 )  ( + T8 363 ) ) ( <= ( + T8 409 )( + T3 340 ) ) )
(or ( <= ( + T3 512 )  ( + T8 409 ) ) ( <= ( + T8 490 )( + T3 426 ) ) )
(or ( <= ( + T4 24 ) T5 ) ( <= ( + T5 50 ) T4 ) )
(or ( <= ( + T4 54 )  ( + T5 50 ) ) ( <= ( + T5 98 )( + T4 24 ) ) )
(or ( <= ( + T4 56 )  ( + T5 98 ) ) ( <= ( + T5 170 )( + T4 54 ) ) )
(or ( <= ( + T4 143 )  ( + T5 170 ) ) ( <= ( + T5 173 )( + T4 56 ) ) )
(or ( <= ( + T4 212 )  ( + T5 173 ) ) ( <= ( + T5 265 )( + T4 143 ) ) )
(or ( <= ( + T4 266 )  ( + T5 265 ) ) ( <= ( + T5 270 )( + T4 212 ) ) )
(or ( <= ( + T4 335 )  ( + T5 270 ) ) ( <= ( + T5 273 )( + T4 266 ) ) )
(or ( <= ( + T4 347 )  ( + T5 273 ) ) ( <= ( + T5 358 )( + T4 335 ) ) )
(or ( <= ( + T4 391 )  ( + T5 358 ) ) ( <= ( + T5 441 )( + T4 347 ) ) )
(or ( <= ( + T4 419 )  ( + T5 441 ) ) ( <= ( + T5 463 )( + T4 391 ) ) )
(or ( <= ( + T4 24 ) T6 ) ( <= ( + T6 20 ) T4 ) )
(or ( <= ( + T4 54 )  ( + T6 20 ) ) ( <= ( + T6 57 )( + T4 24 ) ) )
(or ( <= ( + T4 56 )  ( + T6 57 ) ) ( <= ( + T6 149 )( + T4 54 ) ) )
(or ( <= ( + T4 143 )  ( + T6 149 ) ) ( <= ( + T6 186 )( + T4 56 ) ) )
(or ( <= ( + T4 212 )  ( + T6 186 ) ) ( <= ( + T6 221 )( + T4 143 ) ) )
(or ( <= ( + T4 266 )  ( + T6 221 ) ) ( <= ( + T6 318 )( + T4 212 ) ) )
(or ( <= ( + T4 335 )  ( + T6 318 ) ) ( <= ( + T6 390 )( + T4 266 ) ) )
(or ( <= ( + T4 347 )  ( + T6 390 ) ) ( <= ( + T6 475 )( + T4 335 ) ) )
(or ( <= ( + T4 391 )  ( + T6 475 ) ) ( <= ( + T6 484 )( + T4 347 ) ) )
(or ( <= ( + T4 419 )  ( + T6 484 ) ) ( <= ( + T6 542 )( + T4 391 ) ) )
(or ( <= ( + T4 24 ) T7 ) ( <= ( + T7 70 ) T4 ) )
(or ( <= ( + T4 54 )  ( + T7 70 ) ) ( <= ( + T7 155 )( + T4 24 ) ) )
(or ( <= ( + T4 56 )  ( + T7 155 ) ) ( <= ( + T7 194 )( + T4 54 ) ) )
(or ( <= ( + T4 143 )  ( + T7 194 ) ) ( <= ( + T7 218 )( + T4 56 ) ) )
(or ( <= ( + T4 212 )  ( + T7 218 ) ) ( <= ( + T7 289 )( + T4 143 ) ) )
(or ( <= ( + T4 266 )  ( + T7 289 ) ) ( <= ( + T7 348 )( + T4 212 ) ) )
(or ( <= ( + T4 335 )  ( + T7 348 ) ) ( <= ( + T7 425 )( + T4 266 ) ) )
(or ( <= ( + T4 347 )  ( + T7 425 ) ) ( <= ( + T7 516 )( + T4 335 ) ) )
(or ( <= ( + T4 391 )  ( + T7 516 ) ) ( <= ( + T7 538 )( + T4 347 ) ) )
(or ( <= ( + T4 419 )  ( + T7 538 ) ) ( <= ( + T7 558 )( + T4 391 ) ) )
(or ( <= ( + T4 24 ) T8 ) ( <= ( + T8 19 ) T4 ) )
(or ( <= ( + T4 54 )  ( + T8 19 ) ) ( <= ( + T8 42 )( + T4 24 ) ) )
(or ( <= ( + T4 56 )  ( + T8 42 ) ) ( <= ( + T8 61 )( + T4 54 ) ) )
(or ( <= ( + T4 143 )  ( + T8 61 ) ) ( <= ( + T8 151 )( + T4 56 ) ) )
(or ( <= ( + T4 212 )  ( + T8 151 ) ) ( <= ( + T8 176 )( + T4 143 ) ) )
(or ( <= ( + T4 266 )  ( + T8 176 ) ) ( <= ( + T8 238 )( + T4 212 ) ) )
(or ( <= ( + T4 335 )  ( + T8 238 ) ) ( <= ( + T8 284 )( + T4 266 ) ) )
(or ( <= ( + T4 347 )  ( + T8 284 ) ) ( <= ( + T8 363 )( + T4 335 ) ) )
(or ( <= ( + T4 391 )  ( + T8 363 ) ) ( <= ( + T8 409 )( + T4 347 ) ) )
(or ( <= ( + T4 419 )  ( + T8 409 ) ) ( <= ( + T8 490 )( + T4 391 ) ) )
(or ( <= ( + T5 50 ) T6 ) ( <= ( + T6 20 ) T5 ) )
(or ( <= ( + T5 98 )  ( + T6 20 ) ) ( <= ( + T6 57 )( + T5 50 ) ) )
(or ( <= ( + T5 170 )  ( + T6 57 ) ) ( <= ( + T6 149 )( + T5 98 ) ) )
(or ( <= ( + T5 173 )  ( + T6 149 ) ) ( <= ( + T6 186 )( + T5 170 ) ) )
(or ( <= ( + T5 265 )  ( + T6 186 ) ) ( <= ( + T6 221 )( + T5 173 ) ) )
(or ( <= ( + T5 270 )  ( + T6 221 ) ) ( <= ( + T6 318 )( + T5 265 ) ) )
(or ( <= ( + T5 273 )  ( + T6 318 ) ) ( <= ( + T6 390 )( + T5 270 ) ) )
(or ( <= ( + T5 358 )  ( + T6 390 ) ) ( <= ( + T6 475 )( + T5 273 ) ) )
(or ( <= ( + T5 441 )  ( + T6 475 ) ) ( <= ( + T6 484 )( + T5 358 ) ) )
(or ( <= ( + T5 463 )  ( + T6 484 ) ) ( <= ( + T6 542 )( + T5 441 ) ) )
(or ( <= ( + T5 50 ) T7 ) ( <= ( + T7 70 ) T5 ) )
(or ( <= ( + T5 98 )  ( + T7 70 ) ) ( <= ( + T7 155 )( + T5 50 ) ) )
(or ( <= ( + T5 170 )  ( + T7 155 ) ) ( <= ( + T7 194 )( + T5 98 ) ) )
(or ( <= ( + T5 173 )  ( + T7 194 ) ) ( <= ( + T7 218 )( + T5 170 ) ) )
(or ( <= ( + T5 265 )  ( + T7 218 ) ) ( <= ( + T7 289 )( + T5 173 ) ) )
(or ( <= ( + T5 270 )  ( + T7 289 ) ) ( <= ( + T7 348 )( + T5 265 ) ) )
(or ( <= ( + T5 273 )  ( + T7 348 ) ) ( <= ( + T7 425 )( + T5 270 ) ) )
(or ( <= ( + T5 358 )  ( + T7 425 ) ) ( <= ( + T7 516 )( + T5 273 ) ) )
(or ( <= ( + T5 441 )  ( + T7 516 ) ) ( <= ( + T7 538 )( + T5 358 ) ) )
(or ( <= ( + T5 463 )  ( + T7 538 ) ) ( <= ( + T7 558 )( + T5 441 ) ) )
(or ( <= ( + T5 50 ) T8 ) ( <= ( + T8 19 ) T5 ) )
(or ( <= ( + T5 98 )  ( + T8 19 ) ) ( <= ( + T8 42 )( + T5 50 ) ) )
(or ( <= ( + T5 170 )  ( + T8 42 ) ) ( <= ( + T8 61 )( + T5 98 ) ) )
(or ( <= ( + T5 173 )  ( + T8 61 ) ) ( <= ( + T8 151 )( + T5 170 ) ) )
(or ( <= ( + T5 265 )  ( + T8 151 ) ) ( <= ( + T8 176 )( + T5 173 ) ) )
(or ( <= ( + T5 270 )  ( + T8 176 ) ) ( <= ( + T8 238 )( + T5 265 ) ) )
(or ( <= ( + T5 273 )  ( + T8 238 ) ) ( <= ( + T8 284 )( + T5 270 ) ) )
(or ( <= ( + T5 358 )  ( + T8 284 ) ) ( <= ( + T8 363 )( + T5 273 ) ) )
(or ( <= ( + T5 441 )  ( + T8 363 ) ) ( <= ( + T8 409 )( + T5 358 ) ) )
(or ( <= ( + T5 463 )  ( + T8 409 ) ) ( <= ( + T8 490 )( + T5 441 ) ) )
(or ( <= ( + T6 20 ) T7 ) ( <= ( + T7 70 ) T6 ) )
(or ( <= ( + T6 57 )  ( + T7 70 ) ) ( <= ( + T7 155 )( + T6 20 ) ) )
(or ( <= ( + T6 149 )  ( + T7 155 ) ) ( <= ( + T7 194 )( + T6 57 ) ) )
(or ( <= ( + T6 186 )  ( + T7 194 ) ) ( <= ( + T7 218 )( + T6 149 ) ) )
(or ( <= ( + T6 221 )  ( + T7 218 ) ) ( <= ( + T7 289 )( + T6 186 ) ) )
(or ( <= ( + T6 318 )  ( + T7 289 ) ) ( <= ( + T7 348 )( + T6 221 ) ) )
(or ( <= ( + T6 390 )  ( + T7 348 ) ) ( <= ( + T7 425 )( + T6 318 ) ) )
(or ( <= ( + T6 475 )  ( + T7 425 ) ) ( <= ( + T7 516 )( + T6 390 ) ) )
(or ( <= ( + T6 484 )  ( + T7 516 ) ) ( <= ( + T7 538 )( + T6 475 ) ) )
(or ( <= ( + T6 542 )  ( + T7 538 ) ) ( <= ( + T7 558 )( + T6 484 ) ) )
(or ( <= ( + T6 20 ) T8 ) ( <= ( + T8 19 ) T6 ) )
(or ( <= ( + T6 57 )  ( + T8 19 ) ) ( <= ( + T8 42 )( + T6 20 ) ) )
(or ( <= ( + T6 149 )  ( + T8 42 ) ) ( <= ( + T8 61 )( + T6 57 ) ) )
(or ( <= ( + T6 186 )  ( + T8 61 ) ) ( <= ( + T8 151 )( + T6 149 ) ) )
(or ( <= ( + T6 221 )  ( + T8 151 ) ) ( <= ( + T8 176 )( + T6 186 ) ) )
(or ( <= ( + T6 318 )  ( + T8 176 ) ) ( <= ( + T8 238 )( + T6 221 ) ) )
(or ( <= ( + T6 390 )  ( + T8 238 ) ) ( <= ( + T8 284 )( + T6 318 ) ) )
(or ( <= ( + T6 475 )  ( + T8 284 ) ) ( <= ( + T8 363 )( + T6 390 ) ) )
(or ( <= ( + T6 484 )  ( + T8 363 ) ) ( <= ( + T8 409 )( + T6 475 ) ) )
(or ( <= ( + T6 542 )  ( + T8 409 ) ) ( <= ( + T8 490 )( + T6 484 ) ) )
(or ( <= ( + T7 70 ) T8 ) ( <= ( + T8 19 ) T7 ) )
(or ( <= ( + T7 155 )  ( + T8 19 ) ) ( <= ( + T8 42 )( + T7 70 ) ) )
(or ( <= ( + T7 194 )  ( + T8 42 ) ) ( <= ( + T8 61 )( + T7 155 ) ) )
(or ( <= ( + T7 218 )  ( + T8 61 ) ) ( <= ( + T8 151 )( + T7 194 ) ) )
(or ( <= ( + T7 289 )  ( + T8 151 ) ) ( <= ( + T8 176 )( + T7 218 ) ) )
(or ( <= ( + T7 348 )  ( + T8 176 ) ) ( <= ( + T8 238 )( + T7 289 ) ) )
(or ( <= ( + T7 425 )  ( + T8 238 ) ) ( <= ( + T8 284 )( + T7 348 ) ) )
(or ( <= ( + T7 516 )  ( + T8 284 ) ) ( <= ( + T8 363 )( + T7 425 ) ) )
(or ( <= ( + T7 538 )  ( + T8 363 ) ) ( <= ( + T8 409 )( + T7 516 ) ) )
(or ( <= ( + T7 558 )  ( + T8 409 ) ) ( <= ( + T8 490 )( + T7 538 ) ) )
( <= ( + T1 425 ) Z)
( <= ( + T2 504 ) Z)
( <= ( + T3 512 ) Z)
( <= ( + T4 419 ) Z)
( <= ( + T5 463 ) Z)
( <= ( + T6 542 ) Z)
( <= ( + T7 558 ) Z)
( <= ( + T8 490 ) Z)
( >= T1 0 )
( >= T2 0 )
( >= T3 0 )
( >= T4 0 )
( >= T5 0 )
( >= T6 0 )
( >= T7 0 )
( >= T8 0 )
) )
(minimize Z)
(check-sat)